outputs/case_425.model.txt
financial_or_business_improvement_plan_completed = False
capital_adequacy_ratio = 45
merger_completed = True
capital_increase_completed = False
net_worth_ratio = 3/2
net_worth = -10
improvement_plan_approved = False
improvement_plan_executed = False
improvement_plan_submitted = False
violation_148_2_2 = False
violation_148_3_1 = False
violation_148_2_1_flag = False
capital_level_2_measures_completed = False
violation_144_5 = False
violation_148_3_1_flag = False
violation_148_2_2_flag = False
capital_level = 4
capital_level_insufficient = False
violation_148_2_1 = False
violation_144_5_flag = False
violation_148_1_or_2_flag = False
capital_level_severe_insufficient = True
penalty = False
capital_level_4_measures_completed = False
capital_level_adequate = False
violation_148_3_2_flag = False
violation_148_3_2 = False
capital_level_significant_deterioration = False
violation_144_1_to_4_145 = False
capital_level_3_measures_completed = False
violation_148_1_or_2 = False
violation_144_1_to_4_145_flag = False